(declare-const term_to_project_onto0_integralized Int)
(declare-const term_to_project_onto1_integralized Int)
(declare-const term_to_project_onto_integralized Int)
(assert (exists
         ((uninterp?1?1 Int) (uninterp?2?2 Int) (uninterp?3?3 Int)
            (uninterp?4?4 Int) (uninterp?5?5 Int) (|c'?6?6| Int)
            (|x'?7?7| Int) (|y'?8?8| Int) (c?9?9 Int) (k?10?10 Int)
            (y?11?11 Int) (x?12?12 Int))
         (and (<= (- c?9?9) 0) (<= (- y?11?11) 0) (= (+ y?11?11 (- c?9?9)) 0)
                (= (+ (* 12 x?12?12) (* -2 uninterp?3?3) (* -6 uninterp?1?1)
                        (* -5 uninterp?2?2) uninterp?5?5) 0)
                (<= (+ (- k?10?10) c?9?9 1) 0)
                (= (+ |c'?6?6| (- c?9?9) -1) 0)
                (= (+ |x'?7?7| (- x?12?12) (- uninterp?1?1)
                        (* -5 uninterp?2?2) (* -10 uninterp?4?4)
                        (* -10 uninterp?5?5) (* -5 y?11?11) -1) 0)
                (= (+ |y'?8?8| (- y?11?11) -1) 0) (<= (- uninterp?1?1) 0)
                (<= (- uninterp?2?2) 0) (<= (- uninterp?3?3) 0)
                (<= (- uninterp?4?4) 0) (<= (- uninterp?5?5) 0)
                (= (+ term_to_project_onto1_integralized
                        (- (+ |y'?8?8| (- y?11?11)))) 0)
                (= (+ term_to_project_onto0_integralized
                        (- (+ |x'?7?7| (- x?12?12)))) 0)
                (= (+ term_to_project_onto_integralized
                        (- (+ |c'?6?6| (- c?9?9)))) 0))))